(declare-fun file_1_/usr/lib/x86_64-linux-gnu/gconv/gconv-modules.cache_0_120_1024
             ()
             (_ BitVec 1024))
(declare-fun mem_7fffffffffefab0_118_64 () (_ BitVec 64))
(declare-fun mem_c00986ab_205_16 () (_ BitVec 16))
(declare-fun mem_c0093b83_196_16 () (_ BitVec 16))
(declare-fun mem_c00cefff_194_8 () (_ BitVec 8))
(declare-fun mem_c00cf000_195_8 () (_ BitVec 8))
(assert (let ((a!1 (concat (concat (concat #b0000000000000000000000000000000000000000000000
                                   ((_ extract 951 944)
                                     file_1_/usr/lib/x86_64-linux-gnu/gconv/gconv-modules.cache_0_120_1024))
                           ((_ extract 959 952)
                             file_1_/usr/lib/x86_64-linux-gnu/gconv/gconv-modules.cache_0_120_1024))
                   #b00))
      (a!3 (bvule (concat (concat #x000000000000
                                  ((_ extract 919 912)
                                    file_1_/usr/lib/x86_64-linux-gnu/gconv/gconv-modules.cache_0_120_1024))
                          ((_ extract 927 920)
                            file_1_/usr/lib/x86_64-linux-gnu/gconv/gconv-modules.cache_0_120_1024))
                  mem_7fffffffffefab0_118_64))
      (a!4 (bvurem #x000000000a890b4f
                   (concat (concat #x000000000000
                                   ((_ extract 951 944)
                                     file_1_/usr/lib/x86_64-linux-gnu/gconv/gconv-modules.cache_0_120_1024))
                           ((_ extract 959 952)
                             file_1_/usr/lib/x86_64-linux-gnu/gconv/gconv-modules.cache_0_120_1024))))
      (a!8 (bvmul #xffffffff
                  (concat (concat #x0000
                                  ((_ extract 983 976)
                                    file_1_/usr/lib/x86_64-linux-gnu/gconv/gconv-modules.cache_0_120_1024))
                          ((_ extract 991 984)
                            file_1_/usr/lib/x86_64-linux-gnu/gconv/gconv-modules.cache_0_120_1024))))
      (a!11 (bvadd ((_ extract 15 0) mem_7fffffffffefab0_118_64)
                   (bvmul #xffff
                          (concat ((_ extract 983 976)
                                    file_1_/usr/lib/x86_64-linux-gnu/gconv/gconv-modules.cache_0_120_1024)
                                  ((_ extract 991 984)
                                    file_1_/usr/lib/x86_64-linux-gnu/gconv/gconv-modules.cache_0_120_1024)))))
      (a!12 (bvadd #xfffffffe
                   (concat (concat #x0000
                                   ((_ extract 951 944)
                                     file_1_/usr/lib/x86_64-linux-gnu/gconv/gconv-modules.cache_0_120_1024))
                           ((_ extract 959 952)
                             file_1_/usr/lib/x86_64-linux-gnu/gconv/gconv-modules.cache_0_120_1024))))
      (a!15 (bvmul #xffffffff
                   (concat (concat #x0000
                                   ((_ extract 951 944)
                                     file_1_/usr/lib/x86_64-linux-gnu/gconv/gconv-modules.cache_0_120_1024))
                           ((_ extract 959 952)
                             file_1_/usr/lib/x86_64-linux-gnu/gconv/gconv-modules.cache_0_120_1024))))
      (a!20 (bvmul #b111111111111111111111111111111
                   (concat (concat #b00000000000000
                                   ((_ extract 951 944)
                                     file_1_/usr/lib/x86_64-linux-gnu/gconv/gconv-modules.cache_0_120_1024))
                           ((_ extract 959 952)
                             file_1_/usr/lib/x86_64-linux-gnu/gconv/gconv-modules.cache_0_120_1024))))
      (a!29 (bvadd #x00000000c0080000
                   (concat #x000000000000 mem_c00986ab_205_16)
                   (concat (concat #x000000000000
                                   ((_ extract 983 976)
                                     file_1_/usr/lib/x86_64-linux-gnu/gconv/gconv-modules.cache_0_120_1024))
                           ((_ extract 991 984)
                             file_1_/usr/lib/x86_64-linux-gnu/gconv/gconv-modules.cache_0_120_1024))))
      (a!30 (not (bvule ((_ extract 15 0) mem_7fffffffffefab0_118_64)
                        (concat ((_ extract 983 976)
                                  file_1_/usr/lib/x86_64-linux-gnu/gconv/gconv-modules.cache_0_120_1024)
                                ((_ extract 991 984)
                                  file_1_/usr/lib/x86_64-linux-gnu/gconv/gconv-modules.cache_0_120_1024)))))
      (a!32 (not (bvule ((_ extract 15 0) mem_7fffffffffefab0_118_64)
                        (concat ((_ extract 967 960)
                                  file_1_/usr/lib/x86_64-linux-gnu/gconv/gconv-modules.cache_0_120_1024)
                                ((_ extract 975 968)
                                  file_1_/usr/lib/x86_64-linux-gnu/gconv/gconv-modules.cache_0_120_1024)))))
      (a!34 (not (bvule ((_ extract 15 0) mem_7fffffffffefab0_118_64)
                        (concat ((_ extract 935 928)
                                  file_1_/usr/lib/x86_64-linux-gnu/gconv/gconv-modules.cache_0_120_1024)
                                ((_ extract 943 936)
                                  file_1_/usr/lib/x86_64-linux-gnu/gconv/gconv-modules.cache_0_120_1024))))))
(let ((a!2 (bvadd (concat (concat #x000000000000
                                  ((_ extract 967 960)
                                    file_1_/usr/lib/x86_64-linux-gnu/gconv/gconv-modules.cache_0_120_1024))
                          ((_ extract 975 968)
                            file_1_/usr/lib/x86_64-linux-gnu/gconv/gconv-modules.cache_0_120_1024))
                  a!1))
      (a!5 (bvadd (concat (concat #x00000000c008
                                  ((_ extract 967 960)
                                    file_1_/usr/lib/x86_64-linux-gnu/gconv/gconv-modules.cache_0_120_1024))
                          ((_ extract 975 968)
                            file_1_/usr/lib/x86_64-linux-gnu/gconv/gconv-modules.cache_0_120_1024))
                  (concat (concat #b000000000000000000000000000000
                                  ((_ extract 31 0) a!4))
                          #b00)))
      (a!6 (bvmul #xffffffffffffffff
                  (concat (concat #b000000000000000000000000000000
                                  ((_ extract 31 0) a!4))
                          #b00)))
      (a!9 (= #x0000
              ((_ extract 31 16)
                (bvadd ((_ extract 31 0) mem_7fffffffffefab0_118_64) a!8))))
      (a!10 (bvadd (concat (concat #xc008
                                   ((_ extract 967 960)
                                     file_1_/usr/lib/x86_64-linux-gnu/gconv/gconv-modules.cache_0_120_1024))
                           ((_ extract 975 968)
                             file_1_/usr/lib/x86_64-linux-gnu/gconv/gconv-modules.cache_0_120_1024))
                   (concat ((_ extract 29 0) a!4) #b00)))
      (a!13 (bvadd #x00000001
                   ((_ extract 31 0) a!4)
                   ((_ extract 31 0)
                     (bvurem #x000000000a890b4f (concat #x00000000 a!12)))))
      (a!19 (bvadd #b000000000000000000000000000001
                   ((_ extract 29 0) a!4)
                   ((_ extract 29 0)
                     (bvurem #x000000000a890b4f (concat #x00000000 a!12)))))
      (a!31 (or (not (= #x000000000000
                        ((_ extract 63 16) mem_7fffffffffefab0_118_64)))
                a!30))
      (a!33 (or (not (= #x000000000000
                        ((_ extract 63 16) mem_7fffffffffefab0_118_64)))
                a!32))
      (a!35 (or (not (= #x000000000000
                        ((_ extract 63 16) mem_7fffffffffefab0_118_64)))
                a!34)))
(let ((a!7 (= (concat (concat #x00000000c008
                              ((_ extract 967 960)
                                file_1_/usr/lib/x86_64-linux-gnu/gconv/gconv-modules.cache_0_120_1024))
                      ((_ extract 975 968)
                        file_1_/usr/lib/x86_64-linux-gnu/gconv/gconv-modules.cache_0_120_1024))
              (bvadd #x00000000c00cefff a!6)))
      (a!14 (bvule (concat (concat #x0000
                                   ((_ extract 951 944)
                                     file_1_/usr/lib/x86_64-linux-gnu/gconv/gconv-modules.cache_0_120_1024))
                           ((_ extract 959 952)
                             file_1_/usr/lib/x86_64-linux-gnu/gconv/gconv-modules.cache_0_120_1024))
                   a!13)))
(let ((a!16 (concat (concat #b000000000000000000000000000000
                            (ite a!14 (bvadd a!13 a!15) a!13))
                    #b00))
      (a!21 (bvadd (concat (concat #xc008
                                   ((_ extract 967 960)
                                     file_1_/usr/lib/x86_64-linux-gnu/gconv/gconv-modules.cache_0_120_1024))
                           ((_ extract 975 968)
                             file_1_/usr/lib/x86_64-linux-gnu/gconv/gconv-modules.cache_0_120_1024))
                   (concat (ite a!14 (bvadd a!19 a!20) a!19) #b00)))
      (a!22 (bvadd #x00000001
                   (ite a!14 (bvadd a!13 a!15) a!13)
                   ((_ extract 31 0)
                     (bvurem #x000000000a890b4f (concat #x00000000 a!12)))))
      (a!26 (bvadd #b000000000000000000000000000001
                   (ite a!14 (bvadd a!19 a!20) a!19)
                   ((_ extract 29 0)
                     (bvurem #x000000000a890b4f (concat #x00000000 a!12))))))
(let ((a!17 (bvadd (concat (concat #x00000000c008
                                   ((_ extract 967 960)
                                     file_1_/usr/lib/x86_64-linux-gnu/gconv/gconv-modules.cache_0_120_1024))
                           ((_ extract 975 968)
                             file_1_/usr/lib/x86_64-linux-gnu/gconv/gconv-modules.cache_0_120_1024))
                   a!16))
      (a!18 (= (concat (concat #x00000000c008
                               ((_ extract 967 960)
                                 file_1_/usr/lib/x86_64-linux-gnu/gconv/gconv-modules.cache_0_120_1024))
                       ((_ extract 975 968)
                         file_1_/usr/lib/x86_64-linux-gnu/gconv/gconv-modules.cache_0_120_1024))
               (bvadd #x00000000c0093b83 (bvmul #xffffffffffffffff a!16))))
      (a!23 (bvule (concat (concat #x0000
                                   ((_ extract 951 944)
                                     file_1_/usr/lib/x86_64-linux-gnu/gconv/gconv-modules.cache_0_120_1024))
                           ((_ extract 959 952)
                             file_1_/usr/lib/x86_64-linux-gnu/gconv/gconv-modules.cache_0_120_1024))
                   a!22)))
(let ((a!24 (concat (concat #b000000000000000000000000000000
                            (ite a!23 (bvadd a!22 a!15) a!22))
                    #b00))
      (a!27 (bvadd (concat (concat #xc008
                                   ((_ extract 967 960)
                                     file_1_/usr/lib/x86_64-linux-gnu/gconv/gconv-modules.cache_0_120_1024))
                           ((_ extract 975 968)
                             file_1_/usr/lib/x86_64-linux-gnu/gconv/gconv-modules.cache_0_120_1024))
                   (concat (ite a!23 (bvadd a!26 a!20) a!26) #b00))))
(let ((a!25 (bvadd (concat (concat #x00000000c008
                                   ((_ extract 967 960)
                                     file_1_/usr/lib/x86_64-linux-gnu/gconv/gconv-modules.cache_0_120_1024))
                           ((_ extract 975 968)
                             file_1_/usr/lib/x86_64-linux-gnu/gconv/gconv-modules.cache_0_120_1024))
                   a!24))
      (a!28 (= (concat (concat #x00000000c008
                               ((_ extract 967 960)
                                 file_1_/usr/lib/x86_64-linux-gnu/gconv/gconv-modules.cache_0_120_1024))
                       ((_ extract 975 968)
                         file_1_/usr/lib/x86_64-linux-gnu/gconv/gconv-modules.cache_0_120_1024))
               (bvadd #x00000000c00986ab (bvmul #xffffffffffffffff a!24)))))
  (and (not (= #x0000 mem_c00986ab_205_16))
       (= #x24
          ((_ extract 1023 1016)
            file_1_/usr/lib/x86_64-linux-gnu/gconv/gconv-modules.cache_0_120_1024))
       (not (= #x000000000000000 ((_ extract 63 4) mem_7fffffffffefab0_118_64)))
       (bvule a!2 mem_7fffffffffefab0_118_64)
       a!3
       (= #x03
          ((_ extract 1015 1008)
            file_1_/usr/lib/x86_64-linux-gnu/gconv/gconv-modules.cache_0_120_1024))
       (= #x01
          ((_ extract 1007 1000)
            file_1_/usr/lib/x86_64-linux-gnu/gconv/gconv-modules.cache_0_120_1024))
       (= #x20
          ((_ extract 999 992)
            file_1_/usr/lib/x86_64-linux-gnu/gconv/gconv-modules.cache_0_120_1024))
       (bvule #x00000000c0080000 a!5)
       (= #x00000000 ((_ extract 63 32) a!5))
       a!7
       a!9
       (bvule a!10 #xc00cfb03)
       (bvule a!11 (concat mem_c00cf000_195_8 mem_c00cefff_194_8))
       (bvule #x00000000c0093b83 a!17)
       (= #x00000000 ((_ extract 63 32) a!17))
       a!18
       (bvule a!21 #xc0094963)
       (bvule a!11 mem_c0093b83_196_16)
       (bvule #x00000000c00986ab a!25)
       (= #x00000000 ((_ extract 63 32) a!25))
       (bvule a!27 #xc00986ab)
       a!28
       (not (bvule a!11 mem_c00986ab_205_16))
       (bvule #x00000000c0080001 a!29)
       a!31
       a!33
       a!35)))))))))
(maximize (bvadd (concat #x000000000000 mem_c00986ab_205_16)
       (concat (concat #x000000000000
                       ((_ extract 983 976)
                         file_1_/usr/lib/x86_64-linux-gnu/gconv/gconv-modules.cache_0_120_1024))
               ((_ extract 991 984)
                 file_1_/usr/lib/x86_64-linux-gnu/gconv/gconv-modules.cache_0_120_1024))
       #x00000000c0080000))
(check-sat)